DIMACS2
20 64 55 62 4 56 21 44 127 57 153 120 99 141 135 52 143 154 76 74 42
p edge 160 653
e 0 67 1.0
e 0 76 29.0
e 0 40 1.0
e 0 23 1.0
e 1 84 2.0
e 1 7 2.0
e 1 141 12.0
e 1 104 2.0
e 2 149 1.0
e 2 8 2.0
e 2 5 1.0
e 2 155 1.0
e 3 98 1.0
e 3 72 2.0
e 3 94 1.0
e 3 4 44.0
e 4 88 31.0
e 4 122 31.0
e 4 42 36.0
e 4 146 49.0
e 4 44 4.0
e 5 149 2.0
e 5 66 1.0
e 5 116 1.0
e 5 42 44.0
e 6 55 12.0
e 6 136 2.0
e 6 91 1.0
e 6 118 1.0
e 7 6 1.0
e 7 5 1.0
e 7 140 1.0
e 7 37 2.0
e 8 33 2.0
e 8 54 2.0
e 8 121 1.0
e 8 153 46.0
e 9 156 1.0
e 9 151 3.0
e 9 61 1.0
e 9 143 24.0
e 10 101 1.0
e 10 109 1.0
e 10 74 36.0
e 10 97 1.0
e 11 15 1.0
e 11 117 1.0
e 11 20 3.0
e 11 40 2.0
e 12 26 1.0
e 12 88 2.0
e 12 146 1.0
e 12 85 2.0
e 13 29 1.0
e 13 146 2.0
e 13 148 1.0
e 13 86 2.0
e 14 144 3.0
e 14 5 1.0
e 14 31 1.0
e 14 47 1.0
e 15 27 1.0
e 15 41 1.0
e 15 79 1.0
e 15 139 1.0
e 16 92 1.0
e 16 7 1.0
e 16 121 1.0
e 16 142 1.0
e 17 50 1.0
e 17 25 2.0
e 17 13 1.0
e 17 9 1.0
e 18 3 1.0
e 18 79 1.0
e 18 7 2.0
e 18 35 1.0
e 19 75 3.0
e 19 6 3.0
e 19 21 35.0
e 19 132 1.0
e 20 82 1.0
e 20 41 1.0
e 20 63 1.0
e 20 123 1.0
e 21 26 43.0
e 21 72 15.0
e 21 40 22.0
e 21 89 27.0
e 21 62 15.0
e 21 52 12.0
e 22 49 1.0
e 22 3 1.0
e 22 153 39.0
e 22 143 18.0
e 23 20 1.0
e 23 156 1.0
e 23 9 1.0
e 23 29 1.0
e 24 117 1.0
e 24 151 2.0
e 24 28 1.0
e 24 49 2.0
e 25 75 1.0
e 25 124 1.0
e 25 5 1.0
e 26 79 2.0
e 26 151 1.0
e 26 114 1.0
e 26 55 31.0
e 27 77 1.0
e 27 67 1.0
e 27 156 1.0
e 27 111 1.0
e 28 105 1.0
e 28 60 2.0
e 28 9 1.0
e 28 13 1.0
e 29 14 1.0
e 29 138 1.0
e 29 53 1.0
e 29 151 1.0
e 30 121 2.0
e 30 48 1.0
e 30 47 1.0
e 30 6 2.0
e 31 130 1.0
e 31 118 2.0
e 31 109 1.0
e 31 15 1.0
e 32 8 1.0
e 32 92 2.0
e 32 81 1.0
e 32 119 1.0
e 33 87 2.0
e 33 131 1.0
e 33 140 1.0
e 33 10 1.0
e 34 146 1.0
e 34 91 1.0
e 34 0 1.0
e 34 109 1.0
e 35 28 1.0
e 35 77 1.0
e 35 119 1.0
e 35 38 1.0
e 36 134 2.0
e 36 15 1.0
e 36 54 2.0
e 36 126 1.0
e 37 107 2.0
e 37 129 2.0
e 37 95 1.0
e 37 121 2.0
e 38 136 2.0
e 38 55 31.0
e 38 82 1.0
e 38 83 1.0
e 39 60 1.0
e 39 157 2.0
e 39 63 1.0
e 39 14 2.0
e 40 18 2.0
e 40 79 1.0
e 40 19 2.0
e 40 156 1.0
e 41 122 1.0
e 41 70 1.0
e 41 66 1.0
e 41 28 1.0
e 42 20 48.0
e 42 9 12.0
e 42 127 1.0
e 42 108 11.0
e 42 44 23.0
e 43 123 1.0
e 43 117 1.0
e 43 11 2.0
e 43 17 1.0
e 44 40 15.0
e 44 41 39.0
e 44 132 40.0
e 44 21 29.0
e 45 82 1.0
e 45 34 1.0
e 45 119 1.0
e 45 85 1.0
e 46 105 1.0
e 46 7 1.0
e 46 123 1.0
e 47 60 2.0
e 47 31 1.0
e 47 65 1.0
e 47 44 35.0
e 48 132 2.0
e 48 65 2.0
e 48 44 35.0
e 48 18 1.0
e 49 72 1.0
e 49 44 49.0
e 49 109 2.0
e 49 45 1.0
e 50 93 2.0
e 50 143 46.0
e 50 86 1.0
e 50 109 1.0
e 51 94 1.0
e 51 11 1.0
e 51 116 2.0
e 51 147 1.0
e 52 41 38.0
e 52 12 41.0
e 52 30 12.0
e 52 157 2.0
e 52 120 36.0
e 52 57 49.0
e 53 1 2.0
e 53 64 26.0
e 53 155 1.0
e 53 4 44.0
e 54 109 1.0
e 54 1 1.0
e 54 64 4.0
e 54 129 1.0
e 55 134 1.0
e 55 103 40.0
e 55 37 6.0
e 55 123 1.0
e 56 52 10.0
e 56 156 30.0
e 56 118 34.0
e 56 136 35.0
e 57 92 35.0
e 57 100 40.0
e 57 126 14.0
e 57 71 11.0
e 57 42 12.0
e 58 79 2.0
e 58 47 1.0
e 58 42 7.0
e 58 102 1.0
e 59 15 1.0
e 59 37 1.0
e 59 52 26.0
e 59 113 1.0
e 60 41 1.0
e 60 94 2.0
e 60 109 1.0
e 60 9 1.0
e 61 11 1.0
e 61 85 1.0
e 61 121 1.0
e 61 83 1.0
e 62 97 42.0
e 62 60 42.0
e 62 17 6.0
e 62 38 15.0
e 62 135 1.0
e 62 44 33.0
e 62 52 16.0
e 62 74 19.0
e 63 103 1.0
e 63 98 1.0
e 63 125 1.0
e 63 64 32.0
e 64 144 46.0
e 64 143 9.0
e 64 131 29.0
e 64 93 5.0
e 65 86 2.0
e 65 76 42.0
e 65 133 3.0
e 65 57 23.0
e 66 7 1.0
e 66 104 1.0
e 66 124 1.0
e 66 51 1.0
e 67 20 1.0
e 67 4 27.0
e 67 38 1.0
e 67 3 1.0
e 68 24 1.0
e 68 150 2.0
e 68 9 1.0
e 68 129 1.0
e 69 134 1.0
e 69 92 1.0
e 69 155 1.0
e 69 39 1.0
e 70 50 1.0
e 70 2 1.0
e 70 151 2.0
e 70 123 1.0
e 71 131 1.0
e 71 73 1.0
e 71 38 1.0
e 71 155 1.0
e 72 10 1.0
e 72 156 1.0
e 72 45 1.0
e 72 89 1.0
e 73 34 1.0
e 73 16 1.0
e 73 7 1.0
e 73 142 1.0
e 74 63 10.0
e 74 11 31.0
e 74 113 31.0
e 74 108 9.0
e 74 99 13.0
e 74 76 2.0
e 75 155 1.0
e 75 30 1.0
e 75 38 1.0
e 75 79 1.0
e 76 124 22.0
e 76 64 19.0
e 76 132 15.0
e 76 21 14.0
e 76 56 44.0
e 76 99 22.0
e 77 31 1.0
e 77 5 1.0
e 77 17 1.0
e 77 96 2.0
e 78 69 1.0
e 78 10 1.0
e 78 104 2.0
e 78 22 1.0
e 79 43 2.0
e 79 137 1.0
e 79 55 8.0
e 80 158 2.0
e 80 154 4.0
e 80 121 1.0
e 80 33 1.0
e 81 112 1.0
e 81 127 9.0
e 81 130 1.0
e 81 10 2.0
e 82 153 18.0
e 82 89 1.0
e 82 25 2.0
e 82 81 1.0
e 83 51 2.0
e 83 33 1.0
e 83 27 1.0
e 83 88 2.0
e 84 7 1.0
e 84 86 2.0
e 84 36 1.0
e 84 117 1.0
e 85 47 1.0
e 85 142 1.0
e 85 75 1.0
e 85 92 2.0
e 86 138 1.0
e 86 67 1.0
e 86 8 2.0
e 87 127 13.0
e 87 112 1.0
e 87 48 2.0
e 87 16 1.0
e 88 16 1.0
e 88 132 1.0
e 88 48 1.0
e 88 18 1.0
e 89 87 2.0
e 89 102 2.0
e 89 145 1.0
e 89 36 2.0
e 90 137 1.0
e 90 133 1.0
e 90 6 1.0
e 90 30 1.0
e 91 133 3.0
e 91 96 1.0
e 91 25 1.0
e 91 73 1.0
e 92 110 1.0
e 92 156 1.0
e 92 35 1.0
e 92 24 1.0
e 93 87 1.0
e 93 136 1.0
e 93 105 2.0
e 93 122 1.0
e 94 22 2.0
e 94 53 1.0
e 94 58 2.0
e 94 120 13.0
e 95 96 2.0
e 95 89 2.0
e 95 77 1.0
e 95 87 2.0
e 96 142 1.0
e 96 18 1.0
e 96 131 1.0
e 96 26 2.0
e 97 33 1.0
e 97 17 2.0
e 97 105 1.0
e 97 114 1.0
e 98 46 1.0
e 98 41 2.0
e 98 28 1.0
e 98 120 48.0
e 99 41 32.0
e 99 149 27.0
e 99 4 25.0
e 99 71 27.0
e 100 118 1.0
e 100 51 3.0
e 100 1 1.0
e 100 48 1.0
e 101 42 49.0
e 101 138 1.0
e 101 47 3.0
e 101 115 1.0
e 102 47 1.0
e 102 55 32.0
e 102 2 2.0
e 102 66 1.0
e 103 93 1.0
e 103 59 2.0
e 103 14 1.0
e 103 112 1.0
e 104 13 1.0
e 104 38 1.0
e 104 87 1.0
e 104 16 1.0
e 105 91 1.0
e 105 142 1.0
e 105 31 1.0
e 105 30 1.0
e 106 6 1.0
e 106 71 1.0
e 106 3 2.0
e 106 102 1.0
e 107 154 39.0
e 107 49 2.0
e 107 68 2.0
e 108 137 1.0
e 108 101 1.0
e 108 51 2.0
e 108 83 1.0
e 109 35 1.0
e 109 116 1.0
e 109 113 1.0
e 109 138 3.0
e 110 137 2.0
e 110 99 32.0
e 110 83 1.0
e 110 13 1.0
e 111 30 2.0
e 111 50 1.0
e 111 72 1.0
e 111 14 1.0
e 112 26 1.0
e 112 91 1.0
e 112 58 2.0
e 113 158 1.0
e 113 14 2.0
e 113 142 2.0
e 113 85 1.0
e 114 35 1.0
e 114 28 1.0
e 114 133 1.0
e 114 106 1.0
e 115 112 1.0
e 115 67 1.0
e 115 154 40.0
e 115 152 1.0
e 116 97 1.0
e 116 57 49.0
e 116 59 1.0
e 116 101 1.0
e 117 99 22.0
e 117 105 2.0
e 117 91 1.0
e 117 5 1.0
e 118 158 1.0
e 118 43 3.0
e 118 63 1.0
e 118 77 1.0
e 119 110 1.0
e 119 94 2.0
e 119 95 1.0
e 119 102 1.0
e 120 116 34.0
e 120 67 41.0
e 120 18 10.0
e 120 128 38.0
e 120 62 5.0
e 121 51 2.0
e 121 157 1.0
e 121 36 1.0
e 121 98 1.0
e 122 143 27.0
e 122 72 1.0
e 122 117 2.0
e 122 24 1.0
e 123 10 1.0
e 123 140 1.0
e 123 133 2.0
e 123 141 49.0
e 124 88 1.0
e 124 133 1.0
e 124 36 2.0
e 124 87 1.0
e 125 131 1.0
e 125 23 1.0
e 125 86 1.0
e 125 100 3.0
e 126 56 25.0
e 126 53 1.0
e 126 114 1.0
e 126 65 1.0
e 127 135 44.0
e 127 96 36.0
e 127 26 24.0
e 127 78 38.0
e 127 57 19.0
e 128 50 1.0
e 128 33 1.0
e 128 122 1.0
e 128 130 2.0
e 129 152 2.0
e 129 48 1.0
e 129 9 1.0
e 130 85 1.0
e 130 3 1.0
e 130 82 1.0
e 130 23 1.0
e 131 153 39.0
e 131 81 1.0
e 131 32 1.0
e 131 91 1.0
e 132 129 1.0
e 132 37 2.0
e 132 30 1.0
e 132 115 2.0
e 133 2 1.0
e 133 113 1.0
e 133 118 2.0
e 133 102 1.0
e 134 71 1.0
e 134 136 1.0
e 134 41 1.0
e 134 54 1.0
e 135 61 26.0
e 135 68 26.0
e 135 5 5.0
e 135 143 20.0
e 135 21 39.0
e 135 99 11.0
e 136 22 3.0
e 136 107 1.0
e 136 47 2.0
e 136 27 2.0
e 137 50 1.0
e 137 1 2.0
e 137 26 1.0
e 137 12 1.0
e 138 73 2.0
e 138 74 49.0
e 138 43 1.0
e 138 45 1.0
e 139 63 1.0
e 139 16 1.0
e 139 18 1.0
e 139 129 1.0
e 140 9 1.0
e 140 121 1.0
e 140 103 1.0
e 140 117 2.0
e 141 83 12.0
e 141 86 3.0
e 141 50 4.0
e 141 47 24.0
e 141 153 35.0
e 141 120 18.0
e 141 64 34.0
e 142 156 1.0
e 142 56 1.0
e 142 102 1.0
e 142 127 49.0
e 143 0 35.0
e 143 55 22.0
e 143 39 47.0
e 143 51 4.0
e 144 53 1.0
e 144 17 1.0
e 144 30 2.0
e 144 155 1.0
e 145 101 2.0
e 145 135 44.0
e 145 152 2.0
e 146 147 1.0
e 146 100 1.0
e 146 126 1.0
e 147 72 1.0
e 147 75 3.0
e 147 154 28.0
e 147 142 1.0
e 148 7 1.0
e 148 60 1.0
e 148 15 1.0
e 148 117 2.0
e 149 20 1.0
e 149 41 1.0
e 149 26 1.0
e 149 33 1.0
e 150 40 1.0
e 150 64 26.0
e 150 158 2.0
e 150 136 1.0
e 151 14 2.0
e 151 56 13.0
e 151 102 1.0
e 152 56 16.0
e 152 65 2.0
e 152 155 1.0
e 152 67 2.0
e 153 40 26.0
e 153 38 7.0
e 153 123 11.0
e 153 132 21.0
e 154 65 34.0
e 154 20 31.0
e 154 133 20.0
e 154 155 48.0
e 154 135 22.0
e 155 12 2.0
e 155 116 1.0
e 155 56 15.0
e 155 78 1.0
e 156 120 11.0
e 156 99 22.0
e 156 109 1.0
e 156 125 1.0
e 157 68 1.0
e 157 22 1.0
e 157 130 1.0
e 157 133 1.0
e 158 57 14.0
e 158 139 1.0
e 158 88 1.0
e 158 128 1.0
e 159 143 19.0
e 159 156 1.0
e 159 30 1.0
e 159 157 1.0
